50 8
725 863
117 760
811 985
339 612
478 285
162 379
715 811
365 116
294 818
387 238
775 264
180 263
352 302
751 621
331 762
643 883
611 769
643 583
725 429
81 368
232 282
754 995
463 754
687 172
292 850
448 886
813 104
916 478
659 992
384 524
185 297
382 788
398 200
286 70
654 891
581 824
204 538
154 355
713 983
159 617
298 757
63 470
666 114
714 102
368 565
476 762
366 853
72 519
418 747
140 454
